problems/csplib-prob110/ArmiesOfQueens-models/compact/O2/lingeling/model_1_1-03-solution000001.solution
language Essence 1.3

letting black be {(1, 2)}
$ Here is a simple "visualisation" for the value above.
$ 1 2

letting white be {(3, 3)}
$ Here is a simple "visualisation" for the value above.
$ 3 3

