problems/csplib-prob110/ArmiesOfQueens-models/noch/O2/lingeling/model_1_1-03-solution000001.eprime-solution
language ESSENCE' 1.0

letting black_ExplicitVarSizeWithMarker_Marker be 1
letting black_ExplicitVarSizeWithMarker_Values_1 be [1, 1, 1, 1, 1, 1, 1, 1, 1; int(1..9)]
letting black_ExplicitVarSizeWithMarker_Values_2 be [2, 1, 1, 1, 1, 1, 1, 1, 1; int(1..9)]
letting white_ExplicitVarSizeWithMarker_Marker be 1
letting white_ExplicitVarSizeWithMarker_Values_1 be [3, 1, 1, 1, 1, 1, 1, 1, 1; int(1..9)]
letting white_ExplicitVarSizeWithMarker_Values_2 be [3, 1, 1, 1, 1, 1, 1, 1, 1; int(1..9)]
